NAME: Instances/Distribution/200n_10s_20d_instance.tsp
COMMENT: Ben Desjardins (bdesj038@uottawa.ca)
DIMENSION: 200
SPARCITY: 10
%HOLES: 20.0%
EDGE_WEIGHT_TYPE: EUC_2D


NODE	X_LOC	Y_LOC	DEMAND	BATTERY
DATASTART
0	0	0	0	0
1	-147.00	-304.00	1	47
2	-16.00	-288.00	1	36
3	73.00	-297.00	1	27
4	34.00	-445.00	1	85
5	119.00	-349.00	1	59
6	-121.00	-216.00	1	38
7	48.00	-471.00	1	73
8	-136.00	-388.00	1	76
9	115.00	-181.00	1	69
10	230.00	-378.00	1	78
11	349.00	-357.00	1	82
12	482.00	-396.00	1	28
13	491.00	-487.00	1	26
14	189.00	-347.00	1	38
15	-158.00	-71.00	1	67
16	-254.00	-208.00	1	52
17	163.00	-469.00	1	57
18	-41.00	-4.00	1	70
19	83.00	-342.00	1	51
20	96.00	-343.00	1	64
21	465.00	-370.00	1	26
22	24.00	-437.00	1	20
23	-129.00	-456.00	1	96
24	-196.00	-428.00	1	27
25	264.00	-449.00	1	78
26	-86.00	-121.00	1	77
27	-194.00	-331.00	1	43
28	-372.00	-188.00	1	71
29	466.00	-426.00	1	75
30	-381.00	-159.00	1	93
31	139.00	-392.00	1	64
32	-391.00	-305.00	1	50
33	-378.00	-194.00	1	96
34	482.00	-276.00	1	15
35	-247.00	-13.00	1	53
36	240.00	-312.00	1	69
37	-402.00	-280.00	1	75
38	172.00	-193.00	1	92
39	447.00	-306.00	1	60
40	-427.00	-297.00	1	2
41	-378.00	-181.00	1	4
42	249.00	-251.00	1	80
43	-70.00	142.00	1	92
44	383.00	-464.00	1	76
45	472.00	-353.00	1	70
46	-49.00	-300.00	1	39
47	-356.00	-143.00	1	62
48	181.00	-429.00	1	33
49	-86.00	-337.00	1	13
50	484.00	-261.00	1	25
51	-346.00	-333.00	1	50
52	38.00	-77.00	1	55
53	-399.00	-4.00	1	68
54	-36.00	96.00	1	22
55	-498.00	100.00	1	58
56	-379.00	-257.00	1	92
57	-421.00	-334.00	1	75
58	311.00	-421.00	1	10
59	234.00	-448.00	1	36
60	174.00	-286.00	1	29
61	241.00	-385.00	1	7
62	135.00	-30.00	1	86
63	13.00	-99.00	1	95
64	-462.00	-21.00	1	7
65	-422.00	86.00	1	19
66	449.00	-421.00	1	26
67	164.00	10.00	1	19
68	-474.00	-388.00	1	51
69	-316.00	-401.00	1	66
70	136.00	39.00	1	90
71	366.00	-259.00	1	30
72	-489.00	179.00	1	8
73	225.00	85.00	1	18
74	256.00	70.00	1	73
75	-380.00	-377.00	1	60
76	-280.00	-240.00	1	27
77	-334.00	-285.00	1	45
78	-126.00	205.00	1	92
79	-382.00	-134.00	1	37
80	-312.00	167.00	1	38
81	-310.00	14.00	1	22
82	82.00	-157.00	1	49
83	-127.00	-4.00	1	3
84	55.00	-446.00	1	35
85	456.00	-287.00	1	69
86	-148.00	-270.00	1	50
87	-490.00	-177.00	1	23
88	-86.00	337.00	1	75
89	-229.00	-369.00	1	21
90	-155.00	282.00	1	71
91	-166.00	436.00	1	83
92	-372.00	-95.00	1	98
93	273.00	10.00	1	82
94	-48.00	-209.00	1	62
95	116.00	-153.00	1	20
96	-218.00	-284.00	1	46
97	-182.00	-144.00	1	25
98	-54.00	-442.00	1	41
99	373.00	-187.00	1	40
100	-367.00	2.00	1	92
101	241.00	-398.00	1	42
102	198.00	-362.00	1	79
103	-295.00	-240.00	1	82
104	-220.00	334.00	1	37
105	-203.00	156.00	1	78
106	-48.00	-339.00	1	21
107	2.00	366.00	1	70
108	70.00	-483.00	1	9
109	-484.00	-53.00	1	33
110	-186.00	-215.00	1	59
111	313.00	-2.00	1	3
112	-493.00	-426.00	1	12
113	414.00	-156.00	1	33
114	247.00	28.00	1	96
115	83.00	196.00	1	52
116	440.00	-36.00	1	96
117	283.00	-317.00	1	52
118	205.00	-192.00	1	60
119	386.00	55.00	1	14
120	-125.00	55.00	1	93
121	-29.00	40.00	1	69
122	33.00	-275.00	1	17
123	-66.00	-171.00	1	17
124	-364.00	-412.00	1	42
125	224.00	20.00	1	45
126	-29.00	389.00	1	75
127	-176.00	-92.00	1	51
128	491.00	-167.00	1	68
129	-195.00	-216.00	1	16
130	-491.00	-463.00	1	68
131	-71.00	370.00	1	57
132	-264.00	326.00	1	87
133	-254.00	178.00	1	84
134	438.00	193.00	1	61
135	288.00	-284.00	1	84
136	71.00	430.00	1	35
137	-267.00	71.00	1	23
138	-305.00	342.00	1	98
139	424.00	277.00	1	91
140	-380.00	133.00	1	73
141	388.00	-291.00	1	23
142	-168.00	477.00	1	21
143	172.00	-19.00	1	58
144	392.00	-7.00	1	91
145	-283.00	249.00	1	88
146	197.00	287.00	1	4
147	-291.00	-454.00	1	39
148	188.00	494.00	1	65
149	-222.00	-197.00	1	75
150	359.00	266.00	1	40
151	-265.00	-458.00	1	86
152	-337.00	-13.00	1	25
153	2.00	-268.00	1	22
154	226.00	-421.00	1	65
155	314.00	221.00	1	55
156	163.00	-362.00	1	5
157	-257.00	290.00	1	89
158	-449.00	-202.00	1	73
159	118.00	264.00	1	83
160	145.00	159.00	1	78
EODATA
NODE	X_LOC	Y_LOC	DEMAND	DEGREE
HOLESTART
0	-104.02	-471.72	-1	2.26
1	37.40	263.68	-1	2.00
2	-104.02	207.11	-1	2.00
3	291.96	-386.86	-1	2.00
4	-273.73	178.82	-1	2.00
5	-19.17	-188.87	-1	2.00
6	-19.17	150.54	-1	2.00
7	207.11	461.67	-1	2.26
8	263.68	178.82	-1	2.00
9	461.67	-75.74	-1	2.26
10	-160.59	-500.00	-1	1.69
11	-386.86	235.39	-1	2.00
12	9.12	-245.44	-1	2.00
13	-160.59	93.97	-1	2.00
14	-188.87	-358.58	-1	2.00
15	-188.87	376.81	-1	2.00
16	348.53	207.11	-1	2.00
17	-386.86	9.12	-1	2.00
18	-273.73	-188.87	-1	2.00
19	-273.73	37.40	-1	2.00
20	207.11	-160.59	-1	2.00
21	-358.58	263.68	-1	2.00
22	-47.45	93.97	-1	2.00
23	65.69	-471.72	-1	2.26
24	-358.58	-19.17	-1	2.00
25	235.39	-19.17	-1	2.00
26	-75.74	405.10	-1	2.00
27	-415.15	-273.73	-1	2.00
28	178.82	150.54	-1	2.00
29	-47.45	-104.02	-1	2.00
30	-245.44	-217.16	-1	2.00
31	178.82	320.24	-1	2.00
32	-330.29	37.40	-1	2.00
33	-217.16	320.24	-1	2.00
34	489.95	461.67	-1	2.27
35	93.97	-245.44	-1	2.00
36	-75.74	489.95	-1	1.69
37	9.12	65.69	-1	1.88
38	405.10	263.68	-1	2.00
39	291.96	376.81	-1	2.00
EOHOLE
EOF
